NAME : zqloutput/eax-hard-simple-rescaleandround/50-7.tsp
TYPE : TSP
DIMENSION : 50
EDGE_WEIGHT_TYPE : EUC_2D
NODE_COORD_SECTION
1 610019 616393
2 422193 762244
3 682883 440575
4 85921 474350
5 531461 137565
6 300462 674952
7 68695 393853
8 849846 639415
9 662950 222964
10 417731 369966
11 664469 51412
12 63534 771317
13 490349 856104
14 991182 167397
15 307779 291547
16 217644 546998
17 478425 371370
18 326721 401958
19 109210 701935
20 50583 708064
21 437998 275321
22 138669 847334
23 139846 315569
24 536124 619193
25 117095 305540
26 189531 957799
27 542188 873256
28 180842 725129
29 3477 664822
30 651535 1025
31 569695 211531
32 75956 848966
33 81380 957414
34 975025 930167
35 597698 529498
36 407297 184300
37 150082 740086
38 801548 653807
39 60313 579658
40 170585 554000
41 768807 724741
42 498769 238854
43 914224 727613
44 32879 144029
45 974781 522185
46 273160 932333
47 633620 733933
48 570119 511621
49 659159 405372
50 413052 867108
EOF
